contest/ICPC/2014/欧洲/NWERC西北欧/all/knapsackcollection/data/secret/95-pattern6.in
47 9999999 136137
4289563 4425699 4561836 4697971 4834109 4970244 5106380 5242517 5378656 5514792 5650929 5787066 5923201 6059340 6195478 6331614 6467749 6603885 6740022 6876158 7012294 7148432 7284569 7420708 7556845 7692980 7829117 7965255 8101392 8237527 8373666 8509803 8645940 8782078 8918217 9054354 9190492 9326628 9462764 9598901 9735040 9871178 7315 143454 279593 415730 551868
