contest/ICPC/2014/欧洲/NWERC西北欧/all/knapsackcollection/data/secret/95-pattern6.ans
15717751
20136134
63276778032658/3333333
